
Gurobi 11.0.1 (mac64[arm]) logging started Sun May  5 00:07:48 2024

Set parameter LogFile to value "../models/model_moo(May 05).log"
Gurobi Optimizer version 11.0.1 build v11.0.1rc0 (mac64[arm] - Darwin 23.2.0 23C71)

CPU model: Apple M2
Thread count: 8 physical cores, 8 logical processors, using up to 8 threads

Optimize a model with 5810 rows, 3246 columns and 65156 nonzeros
Model fingerprint: 0xe2beb3f4
Variable types: 1810 continuous, 1436 integer (1436 binary)
Coefficient statistics:
  Matrix range     [1e+00, 2e+25]
  Objective range  [1e-02, 3e+01]
  Bounds range     [1e+00, 1e+00]
  RHS range        [1e+00, 1e+12]
Warning: Model contains large matrix coefficient range
Warning: Model contains large rhs
         Consider reformulating model or setting NumericFocus parameter
         to avoid numerical issues.

---------------------------------------------------------------------------
Multi-objectives: starting optimization with 2 objectives ... 
---------------------------------------------------------------------------

Multi-objectives: applying initial presolve ...
---------------------------------------------------------------------------

Presolve removed 4134 rows and 1713 columns
Presolve time: 0.05s
Presolved: 1676 rows, 1533 columns, 8105 nonzeros
---------------------------------------------------------------------------

Multi-objectives: optimize objective 1 (objective_re_1) ...
---------------------------------------------------------------------------

Found heuristic solution: objective 0.0000000
Presolve removed 1260 rows and 1178 columns
Presolve time: 0.00s
Presolved: 416 rows, 355 columns, 1025 nonzeros
Variable types: 0 continuous, 355 integer (355 binary)
Found heuristic solution: objective -898.2544191

Root relaxation: objective -1.127227e+03, 263 iterations, 0.00 seconds (0.00 work units)

    Nodes    |    Current Node    |     Objective Bounds      |     Work
 Expl Unexpl |  Obj  Depth IntInf | Incumbent    BestBd   Gap | It/Node Time

*    0     0               0    -1127.227354 -1127.2274  0.00%     -    0s

Explored 1 nodes (263 simplex iterations) in 0.07 seconds (0.15 work units)
Thread count was 8 (of 8 available processors)

Solution count 2: -1127.23 -898.254 
No other solutions better than -1127.23

Optimal solution found (tolerance 1.00e-04)
Best objective -1.127227353674e+03, best bound -1.127227353674e+03, gap 0.0000%
---------------------------------------------------------------------------

Multi-objectives: optimize objective 2 (objective_3) ...
---------------------------------------------------------------------------


Loaded user MIP start with objective 376.045

Presolve removed 980 rows and 929 columns
Presolve time: 0.01s
Presolved: 697 rows, 604 columns, 2130 nonzeros
Found heuristic solution: objective -1702.600496
Variable types: 149 continuous, 455 integer (330 binary)

Root relaxation: objective -2.833198e+03, 821 iterations, 0.01 seconds (0.01 work units)

    Nodes    |    Current Node    |     Objective Bounds      |     Work
 Expl Unexpl |  Obj  Depth IntInf | Incumbent    BestBd   Gap | It/Node Time

     0     0 -2833.1978    0  127 -1702.6005 -2833.1978  66.4%     -    0s
H    0     0                    -2585.291913 -2833.1978  9.59%     -    0s
H    0     0                    -2829.475746 -2833.1978  0.13%     -    0s

Cutting planes:
  MIR: 1

Explored 1 nodes (843 simplex iterations) in 0.11 seconds (0.19 work units)
Thread count was 8 (of 8 available processors)

Solution count 1: -2829.48 
No other solutions better than -2829.48

Optimal solution found (tolerance 1.00e-04)
Best objective -2.829475746437e+03, best bound -2.829475746437e+03, gap 0.0000%

---------------------------------------------------------------------------
Multi-objectives: solved in 0.11 seconds (0.19 work units), solution count 3

